(set-info :source |printed by MathSAT|)
(declare-fun m_0 () Real)
(declare-fun m0 () Real)
(declare-fun i_0 () Real)
(declare-fun i0 () Real)
(declare-fun e_0 () Real)
(declare-fun e0 () Real)
(declare-fun c_0 () Real)
(declare-fun c0 () Real)
(declare-fun m0_0 () Real)
(define-fun .def_8 () Real (! m_0 :next |m0|))
(define-fun .def_10 () Real (! i_0 :next |i0|))
(define-fun .def_12 () Real (! e_0 :next |e0|))
(define-fun .def_14 () Real (! c_0 :next |c0|))
(define-fun .def_45 () Real (! m0_0 :next |.xpv.1|))
(define-fun .def_39 () Bool (= .def_8 (to_real 0)))
(define-fun .def_38 () Bool (= .def_10 (to_real 0)))
(define-fun .def_40 () Bool (! (and .def_38 .def_39) :init true))
(define-fun .def_35 () Real (+ .def_8 e0))
(define-fun .def_36 () Bool (= .def_35 (to_real 100)))
(define-fun .def_30 () Real (* (to_real (- 10)) c0))
(define-fun .def_31 () Real (+ e0 .def_30))
(define-fun .def_32 () Bool (= .def_31 (to_real 0)))
(define-fun .def_22 () Real (* (to_real (- 1)) m0))
(define-fun .def_25 () Real (+ .def_22 c0))
(define-fun .def_26 () Real (+ .def_8 .def_25))
(define-fun .def_27 () Bool (= .def_26 (to_real 0)))
(define-fun .def_18 () Real (* (to_real (- 1)) i0))
(define-fun .def_19 () Real (+ .def_10 .def_18))
(define-fun .def_20 () Bool (= .def_19 (- (/ 1 1000))))
(define-fun .def_28 () Bool (and .def_20 .def_27))
(define-fun .def_33 () Bool (and .def_28 .def_32))
(define-fun .def_37 () Bool (! (and .def_33 .def_36) :trans true))
(define-fun .def_55 () Real (* (to_real (- 10)) .def_45))
(define-fun .def_57 () Real (* (to_real 9) .def_8))
(define-fun .def_59 () Real (+ .def_57 .def_55))
(define-fun .def_60 () Bool (= .def_59 (to_real (- 100))))
(define-fun .def_49 () Bool (<= (to_real 101) .def_45))
(define-fun .def_50 () Bool (not .def_49))
(define-fun .def_46 () Bool (<= .def_45 (to_real 99)))
(define-fun .def_47 () Bool (not .def_46))
(define-fun .def_51 () Bool (and .def_47 .def_50))
(define-fun .def_52 () Bool (not .def_51))
(define-fun .def_42 () Bool (<= .def_10 (/ 199 1000)))
(define-fun .def_43 () Bool (not .def_42))
(define-fun .def_53 () Bool (and .def_43 .def_52))
(define-fun .def_61 () Bool (and .def_53 .def_60))
(define-fun .def_63 () Bool (! (not .def_61) :invar-property 0))
(assert true)
